100 100 100
50
74 68 58
85 66 70
16 84 99
51 83 54
69 70 85
76 84 85
61 98 74
2 31 31
53 68 79
85 77 53
90 65 94
45 45 39
86 72 80
52 97 97
90 6 82
76 82 66
100 63 78
74 83 6
73 68 10
95 66 2
60 57 78
63 80 66
79 39 73
90 91 96
57 66 77
81 97 7
66 88 68
71 78 23
88 86 64
81 55 64
58 96 95
77 77 75
98 27 81
63 62 86
68 67 68
74 93 72
70 69 71
100 73 63
63 74 96
52 61 95
80 65 91
20 48 11
90 50 97
62 70 82
13 22 5
73 55 95
88 60 65
45 73 86
70 90 67
7 95 98
